20	5
0	5	3	2	1	4	5
1	6	9	12	15	20	18	19
2	6	14	20	19	15	12	18
3	2	11	18
4	6	14	20	16	15	13	17
5	8	18	17	16	19	14	13	20	15
6	3	17	13	16
7	1	13
8	3	9	16	17
9	2	14	7
10	3	20	8	12
11	3	10	15	19
12	2	7	6
13	1	21
14	1	21
15	1	21
16	1	21
17	1	21
18	1	21
19	1	21
20	1	21
21	0
0	0	0	0	0	0	0
1	6	4	4	2	2	0
2	9	3	1	0	0	0
3	5	4	0	3	0	0
4	5	2	2	3	5	3
5	10	2	3	5	0	4
6	1	5	0	0	1	0
7	5	1	1	5	2	5
8	7	3	0	1	5	3
9	3	2	4	1	2	5
10	8	4	1	2	3	2
11	4	0	2	1	0	4
12	7	3	2	4	5	5
13	4	3	4	0	3	3
14	7	2	5	5	2	2
15	3	3	2	2	2	1
16	5	3	0	4	1	4
17	9	4	3	3	0	1
18	7	0	0	0	5	0
19	1	0	3	0	3	0
20	5	2	4	1	4	0
21	0	0	0	0	0	0
5	5	5	5	5
